[2026-03-23T16:09:06.830Z] Pipeline "set_ds_1_ds_1_s000_g003" → 2026_03_23_16_09_06_set_ds_1_ds_1_s000_g003_max.sol
Set parameter WLSAccessID
Set parameter WLSSecret
Set parameter LicenseID to value 2792458
Set parameter LogFile to value "gurobi.log"
Using license file /root/gurobi.lic
Academic license 2792458 - for non-commercial use only - registered to an___@studenti.unipg.it

Gurobi Optimizer version 13.0.1 build v13.0.1rc0 (linux64 - "Ubuntu 24.04.4 LTS")
Copyright (c) 2026, Gurobi Optimization, LLC

Warning: Duplicate section found (read 'binary') - Is a variable name equal to an LP file format keyword?
Warning: Duplicate section found (read 'binary') - Is a variable name equal to an LP file format keyword?
Warning: Duplicate section found (read 'binary') - Is a variable name equal to an LP file format keyword?
Warning: Duplicate section found (read 'binary') - Is a variable name equal to an LP file format keyword?
Warning: Duplicate section found (read 'binary') - Is a variable name equal to an LP file format keyword?
Warning: Duplicate section found (read 'binary') - Is a variable name equal to an LP file format keyword?
Warning: Duplicate section found (read 'binary') - Is a variable name equal to an LP file format keyword?
Warning: Duplicate section found (read 'binary') - Is a variable name equal to an LP file format keyword?
Warning: Duplicate section found (read 'binary') - Is a variable name equal to an LP file format keyword?
Warning: Duplicate section found (read 'binary') - Is a variable name equal to an LP file format keyword?
Warning: Further warnings of this type will be omitted.
Read LP format model from file /root/bgw/data/uploads/2026_03_23_16_09_06_set_ds_1_ds_1_s000_g003_max.lp
Reading time = 0.00 seconds
: 535 rows, 109 columns, 1457 nonzeros

Using Gurobi shared library /opt/gurobi1301/linux64/lib/libgurobi.so.13.0.1

CPU model: AMD EPYC-Genoa Processor, instruction set [SSE2|AVX|AVX2|AVX512]
Thread count: 16 physical cores, 16 logical processors, using up to 16 threads

Academic license 2792458 - for non-commercial use only - registered to an___@studenti.unipg.it
Optimize a model with 535 rows, 109 columns and 1457 nonzeros (Max)
Model fingerprint: 0x179bb3aa
Model has 21 linear objective coefficients
Variable types: 31 continuous, 78 integer (78 binary)
Coefficient statistics:
  Matrix range     [1e+00, 1e+01]
  Objective range  [1e+00, 1e+00]
  Bounds range     [1e+00, 1e+00]
  RHS range        [1e+00, 1e+01]

Found heuristic solution: objective 21.0000000
Presolve removed 258 rows and 42 columns
Presolve time: 0.00s
Presolved: 277 rows, 67 columns, 880 nonzeros
Variable types: 0 continuous, 67 integer (60 binary)
Found heuristic solution: objective 41.0000000

Root relaxation: objective 1.090000e+02, 57 iterations, 0.00 seconds (0.00 work units)

    Nodes    |    Current Node    |     Objective Bounds      |     Work
 Expl Unexpl |  Obj  Depth IntInf | Incumbent    BestBd   Gap | It/Node Time

     0     0  109.00000    0   24   41.00000  109.00000   166%     -    0s
H    0     0                      45.0000000  109.00000   142%     -    0s
H    0     0                      48.0000000  109.00000   127%     -    0s
H    0     0                      51.0000000  109.00000   114%     -    0s
H    0     0                      52.0000000  109.00000   110%     -    0s
H    0     0                      55.0000000  109.00000  98.2%     -    0s
     0     0  109.00000    0   26   55.00000  109.00000  98.2%     -    0s
H    0     0                      58.0000000  109.00000  87.9%     -    0s
     0     0  109.00000    0   26   58.00000  109.00000  87.9%     -    0s
     0     0  109.00000    0   26   58.00000  109.00000  87.9%     -    0s
     0     0  102.00000    0   25   58.00000  102.00000  75.9%     -    0s
     0     0  102.00000    0   25   58.00000  102.00000  75.9%     -    0s
     0     0  102.00000    0   25   58.00000  102.00000  75.9%     -    0s
     0     0  102.00000    0   26   58.00000  102.00000  75.9%     -    0s
     0     0  102.00000    0   26   58.00000  102.00000  75.9%     -    0s
     0     0  102.00000    0   25   58.00000  102.00000  75.9%     -    0s
     0     0  102.00000    0   18   58.00000  102.00000  75.9%     -    0s
     0     0  101.62500    0   27   58.00000  101.62500  75.2%     -    0s
     0     0  101.25000    0   27   58.00000  101.25000  74.6%     -    0s
     0     0  101.25000    0   25   58.00000  101.25000  74.6%     -    0s
     0     0  101.12500    0   17   58.00000  101.12500  74.4%     -    0s
     0     0   99.96875    0   25   58.00000   99.96875  72.4%     -    0s
     0     0   99.96875    0   20   58.00000   99.96875  72.4%     -    0s
     0     0   99.00000    0   20   58.00000   99.00000  70.7%     -    0s
     0     0   99.00000    0   19   58.00000   99.00000  70.7%     -    0s
     0     2   99.00000    0   18   58.00000   99.00000  70.7%     -    0s

Cutting planes:
  Gomory: 10
  Cover: 30
  MIR: 4
  StrongCG: 1
  Inf proof: 48
  Zero half: 6

Explored 6924 nodes (85074 simplex iterations) in 0.49 seconds (0.32 work units)
Thread count was 16 (of 16 available processors)

Solution count 8: 58 55 52 ... 21

Optimal solution found (tolerance 1.00e-04)
Best objective 5.800000000000e+01, best bound 5.800000000000e+01, gap 0.0000%

Wrote result file '/root/bgw/data/results/2026_03_23_16_09_06_set_ds_1_ds_1_s000_g003_max.sol'

